a692.0
595.0
651.0
642.0
657.0
751.0
670.0
648.0
652.0
628.0
672.0
609.0
568.0
644.0
653.0
683.0
710.0
628.0
610.0
737.0
694.0
589.0
623.0
630.0
564.0
637.0
630.0
688.0
633.0
702.0
687.0
592.0
614.0
616.0
616.0
573.0
626.0
635.0
548.0
590.0
707.0
735.0
654.0
616.0
622.0
689.0
600.0
617.0
654.0
613.0
648.0
606.0
720.0
551.0
692.0
713.0
704.0
657.0
661.0
594.0
635.0
602.0
646.0
707.0
626.0
640.0
611.0
661.0
660.0
645.0
677.0
610.0
582.0
615.0
610.0
691.0
658.0
602.0
630.0
589.0
613.0
603.0
658.0
625.0
663.0
603.0
665.0
649.0
706.0
639.0
663.0
702.0
645.0
615.0
661.0
619.0
654.0
597.0
616.0
654.0
